param n := 60;
param c := 1000;
param : V : p w :=
   0	  43	 496
   1	   1	 250
   2	  96	 254
   3	   8	 396
   4	  13	 270
   5	  99	 334
   6	  97	 483
   7	  38	 252
   8	   5	 265
   9	  72	 463
  10	  62	 261
  11	  26	 276
  12	  22	 389
  13	  59	 283
  14	   2	 328
  15	  95	 380
  16	  81	 268
  17	  59	 352
  18	  27	 416
  19	  17	 282
  20	  19	 302
  21	   8	 388
  22	  25	 252
  23	  83	 360
  24	  93	 489
  25	  75	 252
  26	  15	 259
  27	  38	 433
  28	  61	 281
  29	  97	 286
  30	  95	 380
  31	  42	 285
  32	  32	 335
  33	  47	 372
  34	  38	 301
  35	  33	 327
  36	  19	 372
  37	  96	 281
  38	  60	 347
  39	   1	 355
  40	  34	 305
  41	  59	 340
  42	  46	 432
  43	  53	 278
  44	  83	 290
  45	  77	 462
  46	  87	 262
  47	  36	 276
  48	  78	 484
  49	  64	 252
  50	  72	 264
  51	  55	 422
  52	  77	 282
  53	  42	 296
  54	  49	 469
  55	  16	 262
  56	  78	 269
  57	  30	 358
  58	  94	 281
  59	  98	 361
;

set E :=
   0	   3
   0	   6
   0	  10
   0	  26
   0	  27
   0	  52
   0	  59
   1	  12
   1	  19
   1	  24
   1	  27
   1	  29
   1	  30
   1	  39
   1	  40
   2	   3
   2	   9
   2	  11
   2	  13
   2	  26
   2	  28
   2	  32
   2	  53
   3	   9
   3	  11
   3	  20
   3	  45
   3	  50
   3	  57
   3	  58
   3	  59
   4	  13
   4	  31
   4	  39
   4	  51
   5	  23
   5	  27
   5	  29
   5	  30
   5	  33
   5	  35
   5	  38
   5	  59
   6	  32
   6	  48
   6	  57
   7	  22
   7	  35
   7	  40
   7	  41
   7	  53
   7	  55
   7	  57
   8	  11
   8	  23
   8	  33
   8	  59
   9	  13
   9	  37
   9	  41
   9	  47
  10	  17
  10	  22
  10	  30
  11	  13
  11	  18
  11	  26
  11	  58
  12	  29
  12	  32
  12	  34
  12	  35
  12	  49
  12	  51
  12	  55
  12	  58
  12	  59
  13	  16
  13	  33
  13	  57
  14	  20
  14	  21
  14	  29
  14	  36
  14	  48
  14	  49
  14	  51
  15	  22
  15	  37
  15	  54
  15	  55
  15	  57
  16	  17
  16	  32
  16	  54
  16	  56
  16	  59
  17	  51
  17	  56
  18	  23
  18	  30
  18	  42
  19	  45
  19	  50
  19	  54
  20	  27
  20	  41
  20	  48
  20	  53
  21	  41
  21	  42
  21	  51
  21	  57
  22	  26
  22	  38
  23	  32
  23	  37
  23	  52
  23	  59
  25	  50
  25	  57
  26	  37
  26	  40
  26	  45
  26	  47
  27	  37
  27	  57
  28	  29
  28	  32
  28	  43
  28	  55
  29	  30
  29	  32
  29	  36
  29	  39
  29	  45
  29	  46
  29	  51
  29	  53
  30	  49
  30	  50
  30	  57
  31	  40
  32	  44
  33	  39
  33	  57
  33	  58
  34	  38
  34	  50
  34	  53
  35	  36
  35	  52
  35	  58
  36	  44
  36	  46
  36	  55
  37	  41
  37	  55
  38	  39
  38	  56
  39	  47
  39	  53
  40	  48
  40	  50
  40	  51
  41	  48
  43	  46
  43	  55
  43	  59
  44	  59
  45	  48
  46	  52
  47	  52
  48	  55
  48	  56
  49	  52
  49	  59
  50	  52
  50	  57
  51	  59
;
